pymatgen v2020.3.2 with grid density = 2700 / atom
0
Gamma
3 3 1
