Si2 H54 C44  [TRI,TRI1b,aP100] (STD_PRIM doi:10.1016/j.commatsci.2010.05.010)
1.000000
   7.38826064305869   0.00000000000000   0.00000000000000
  -3.00073896807810  16.31422958454581   0.00000000000000
  -0.70773862522293  -0.16173034741634   7.62222942421980
Si H C 
2 54 44 
Direct(100) [A2B54C44] 
   0.75302000000000   0.32279500000000   0.70414900000000  Si    
   0.24698000000000   0.67720500000000   0.29585100000000  Si    
   0.04571100000000   0.28291900000000   0.67036000000000  H     
   0.06010900000000   0.41566400000000   0.51390500000000  H     
   0.25933800000000   0.41884800000000   0.66322200000000  H     
   0.08115800000000   0.46968500000000   0.71704400000000  H     
   0.01988500000000   0.27880600000000   0.99854300000000  H     
   0.08022200000000   0.38712200000000   0.00863700000000  H     
   0.24024300000000   0.32834500000000   0.94270800000000  H     
   0.73097600000000   0.37333100000000   0.40393300000000  H     
   0.49500400000000   0.37929100000000   0.78151600000000  H     
   0.72314400000000   0.18755900000000   0.42801100000000  H     
   0.91314100000000   0.26262000000000   0.37825300000000  H     
   0.71170200000000   0.24093600000000   0.22886400000000  H     
   0.42421700000000   0.29067100000000   0.28133600000000  H     
   0.40398000000000   0.34642900000000   0.47420800000000  H     
   0.40409100000000   0.23952500000000   0.48366800000000  H     
   0.59785500000000   0.53029100000000   0.76519700000000  H     
   0.64562700000000   0.48157000000000   0.57261300000000  H     
   0.82573200000000   0.51738000000000   0.73826900000000  H     
   0.83583300000000   0.44025600000000   0.03996200000000  H     
   0.65885500000000   0.35539700000000   0.07067200000000  H     
   0.60871400000000   0.45621600000000   0.06099200000000  H     
   0.90096800000000   0.15044800000000   0.04821000000000  H     
   0.27533000000000   0.13589300000000   0.74855700000000  H     
   0.72467000000000   0.86410700000000   0.25144300000000  H     
   0.09903200000000   0.84955200000000   0.95179000000000  H     
   0.21207800000000   0.16001100000000   0.20270800000000  H     
   0.95925500000000   0.12894900000000   0.60269200000000  H     
   0.43898900000000   0.09511300000000   0.38158200000000  H     
   0.04074500000000   0.87105100000000   0.39730800000000  H     
   0.78792200000000   0.83998900000000   0.79729200000000  H     
   0.64655600000000   0.04921500000000   0.52181800000000  H     
   0.35344400000000   0.95078500000000   0.47818200000000  H     
   0.56101100000000   0.90488700000000   0.61841800000000  H     
   0.95428900000000   0.71708100000000   0.32964000000000  H     
   0.26902400000000   0.62666900000000   0.59606700000000  H     
   0.50499600000000   0.62070900000000   0.21848400000000  H     
   0.93989100000000   0.58433600000000   0.48609500000000  H     
   0.74066200000000   0.58115200000000   0.33677800000000  H     
   0.91884200000000   0.53031500000000   0.28295600000000  H     
   0.98011500000000   0.72119400000000   0.00145700000000  H     
   0.91977800000000   0.61287800000000   0.99136300000000  H     
   0.75975700000000   0.67165500000000   0.05729200000000  H     
   0.27685600000000   0.81244100000000   0.57198900000000  H     
   0.08685900000000   0.73738000000000   0.62174700000000  H     
   0.28829800000000   0.75906400000000   0.77113600000000  H     
   0.57578300000000   0.70932900000000   0.71866500000000  H     
   0.59602000000000   0.65357100000000   0.52579200000000  H     
   0.59590900000000   0.76047500000000   0.51633200000000  H     
   0.40214500000000   0.46970900000000   0.23480300000000  H     
   0.35437300000000   0.51843000000000   0.42738700000000  H     
   0.17426800000000   0.48262000000000   0.26173100000000  H     
   0.16416700000000   0.55974400000000   0.96003800000000  H     
   0.34114500000000   0.64460300000000   0.92932800000000  H     
   0.39128600000000   0.54378400000000   0.93900800000000  H     
   0.01515500000000   0.33643400000000   0.74095000000000  C     
   0.10822500000000   0.41409800000000   0.65366400000000  C     
   0.09238300000000   0.33227200000000   0.93305300000000  C     
   0.66029600000000   0.22648400000000   0.80584700000000  C     
   0.67741400000000   0.31325400000000   0.45922800000000  C     
   0.64409900000000   0.40489700000000   0.80606200000000  C     
   0.60711200000000   0.15992500000000   0.87120700000000  C     
   0.76138800000000   0.24786800000000   0.36913400000000  C     
   0.46600800000000   0.29680100000000   0.42340500000000  C     
   0.67993700000000   0.48758300000000   0.71521800000000  C     
   0.68915100000000   0.41439600000000   0.00512800000000  C     
   0.55189800000000   0.08141900000000   0.93896000000000  C     
   0.68223700000000   0.04542300000000   0.04676600000000  C     
   0.36933700000000   0.03759600000000   0.89294500000000  C     
   0.86226000000000   0.08829100000000   0.09474200000000  C     
   0.63066300000000   0.96240400000000   0.10705500000000  C     
   0.31776300000000   0.95457700000000   0.95323400000000  C     
   0.23650100000000   0.07311900000000   0.79204900000000  C     
   0.99208600000000   0.05336200000000   0.19729900000000  C     
   0.44810200000000   0.91858100000000   0.06104000000000  C     
   0.76349900000000   0.92688100000000   0.20795100000000  C     
   0.13774000000000   0.91170900000000   0.90525800000000  C     
   0.05784100000000   0.03034800000000   0.74645700000000  C     
   0.17443600000000   0.09727700000000   0.24671700000000  C     
   0.94215900000000   0.96965200000000   0.25354300000000  C     
   0.39288800000000   0.84007500000000   0.12879300000000  C     
   0.00791400000000   0.94663800000000   0.80270100000000  C     
   0.92198200000000   0.06588000000000   0.64476900000000  C     
   0.30007300000000   0.06095000000000   0.34566700000000  C     
   0.07801800000000   0.93412000000000   0.35523100000000  C     
   0.33970400000000   0.77351600000000   0.19415300000000  C     
   0.82556400000000   0.90272300000000   0.75328300000000  C     
   0.74865800000000   0.02158400000000   0.60024000000000  C     
   0.25134200000000   0.97841600000000   0.39976000000000  C     
   0.69992700000000   0.93905000000000   0.65433300000000  C     
   0.98484500000000   0.66356600000000   0.25905000000000  C     
   0.32258600000000   0.68674600000000   0.54077200000000  C     
   0.35590100000000   0.59510300000000   0.19393800000000  C     
   0.89177500000000   0.58590200000000   0.34633600000000  C     
   0.90761700000000   0.66772800000000   0.06694700000000  C     
   0.23861200000000   0.75213200000000   0.63086600000000  C     
   0.53399200000000   0.70319900000000   0.57659500000000  C     
   0.32006300000000   0.51241700000000   0.28478200000000  C     
   0.31084900000000   0.58560400000000   0.99487200000000  C     
